1
1000
60
496 1
495 1
492 1
489 1
478 1
469 1
467 1
459 1
459 1
455 1
453 1
437 1
436 1
428 1
425 1
422 1
411 1
406 1
403 1
394 1
355 1
342 1
333 1
309 1
306 1
302 1
294 1
294 1
292 1
290 1
285 1
285 1
281 1
279 1
279 1
278 1
278 1
270 1
269 1
268 1
267 1
266 1
264 1
264 1
262 1
260 1
258 1
258 1
257 1
256 1
255 1
255 1
255 1
254 1
253 1
251 1
251 1
251 1
250 1
250 1
